SAT
-1 -100 -99 -98 -97 96 -36 94 91 -40 -19 -2 -66 -38 84 51 -56 49 -58 -50 -79 75 71 82 -77 -88 -12 -67 -25 32 23 -3 61 -29 -60 90 72 13 37 -4 -22 -48 65 54 -8 -85 7 70 -86 73 68 -52 -27 -55 11 10 -69 -26 15 -21 74 -16 76 87 53 31 -46 -93 30 -45 -6 -81 9 -64 -5 20 -18 -57 24 -28 39 43 89 -92 33 44 -47 80 -35 -83 59 34 -63 -14 -17 95 78 62 42 -41 0
